NAME : EIL75A.583.tour
COMMENT : Cost = 0_583
COMMENT : Found by LKH [Keld Helsgaun] Sun Sep 17 16:52:40 2017
TYPE : TOUR
DIMENSION : 75
TOUR_SECTION
1
32
6
50
17
75
74
67
4
44
28
46
21
60
68
35
70
59
69
20
36
5
47
29
2
73
27
61
22
63
41
40
42
62
16
3
43
39
12
25
66
45
33
51
26
15
56
13
53
19
8
34
7
52
14
58
65
64
11
37
10
57
71
38
30
54
24
9
31
49
18
48
55
23
72
-1
EOF
